unsat
(:cnf-encoding-aux-vars   32
 :eliminated-applications 4
 :eliminated-vars         45
 :max-memory              18.37
 :memory                  18.10
 :nlsat-conflicts         32
 :nlsat-decisions         62
 :nlsat-learned-added     31
 :nlsat-propagations      321
 :num-allocs              10676
 :rlimit-count            28327
 :time                    0.01
 :total-time              0.02)
